
Gurobi 13.0.2 (win64) logging started Thu Jul 23 17:15:30 2026

Set parameter LogFile to value "E:\codes\ExactEBRP\results\gf_gurobi_performance_recovery_round29\runs\stage2__tight_T_seed5102__c3_replica__300s\external\native_logs\R.0.1.0.1.1_lp.gurobi.log"
Gurobi Optimizer version 13.0.2 build v13.0.2rc1 (win64 - Windows 10.0 (19045.2))

CPU model: 12th Gen Intel(R) Core(TM) i7-12700KF, instruction set [SSE2|AVX|AVX2]
Thread count: 12 physical cores, 20 logical processors, using up to 1 threads

Non-default parameters:
TimeLimit  253.4573042
MIPGap  0
MIPGapAbs  0
LogToConsole  0
Threads  1

Optimize a model with 11916 rows, 3378 columns and 67376 nonzeros (Min)
Model fingerprint: 0x2d9ee8b6
Model has 21 linear objective coefficients
Coefficient statistics:
  Matrix range     [7e-03, 2e+04]
  Objective range  [7e-03, 1e+00]
  Bounds range     [1e-01, 4e+02]
  RHS range        [8e-02, 5e+04]

Presolve removed 916 rows and 108 columns
Presolve time: 0.06s
Presolved: 11000 rows, 3271 columns, 63714 nonzeros

Iteration    Objective       Primal Inf.    Dual Inf.      Time
       0    1.3653502e-01   4.482945e+02   0.000000e+00      0s

Extra simplex iterations after uncrush: 11
    3164    2.3279502e-01   0.000000e+00   0.000000e+00      0s

Solved in 3164 iterations and 0.27 seconds (0.65 work units)
Optimal objective  2.327950191e-01

User-callback calls 3314, time in user-callback 0.00 sec
